*SENSE:Minimize
NAME          MODEL
ROWS
 N  OBJ
 G  C0000000
 G  C0000001
 G  C0000002
 G  C0000003
 G  C0000004
 G  C0000005
 G  C0000006
 G  C0000007
 G  C0000008
COLUMNS
    X0000000  C0000000   1.524000000000e+03
    X0000000  OBJ        1.524000000000e+03
    X0000001  C0000001   1.210000000000e+02
    X0000001  OBJ        1.210000000000e+02
    X0000002  C0000002   1.410000000000e+02
    X0000002  OBJ        1.410000000000e+02
    X0000003  C0000003   1.201000000000e+02
    X0000003  OBJ        1.201000000000e+02
    X0000004  C0000004   1.024800000000e+02
    X0000004  OBJ        1.024800000000e+02
    X0000005  C0000005   1.106400000000e+02
    X0000005  OBJ        1.106400000000e+02
    X0000006  C0000006   5.268500000000e+02
    X0000006  OBJ        5.268500000000e+02
    X0000007  C0000007   1.161500000000e+02
    X0000007  OBJ        1.161500000000e+02
    X0000008  C0000008   9.429000000000e+01
    X0000008  OBJ        9.429000000000e+01
RHS
    RHS       C0000000   4.729567676082e-02
    RHS       C0000001   2.304107352696e-01
    RHS       C0000002   1.036142855180e-01
    RHS       C0000003   3.798241681160e-02
    RHS       C0000004   1.718857476574e-02
    RHS       C0000005   1.041493606367e-01
    RHS       C0000006   6.858789346902e-02
    RHS       C0000007   3.475152630260e-01
    RHS       C0000008   4.325579374244e-02
BOUNDS
ENDATA
